12
-1 82 64 74 4 83 31 6 46 37 56 90
70 -1 54 62 20 74 83 32 30 39 37 91
86 86 -1 72 67 56 28 64 65 8 60 55
82 1 85 -1 54 24 92 74 56 12 31 83
49 68 53 41 -1 87 68 67 89 97 22 32
27 94 98 19 22 -1 70 66 62 48 45 18
78 4 22 87 78 73 -1 57 36 35 96 76
82 47 93 54 74 37 20 -1 67 75 53 92
70 63 90 67 94 9 12 4 -1 87 35 87
2 43 28 19 46 7 94 82 41 -1 16 45
46 61 60 87 1 30 19 8 62 22 -1 64
49 81 5 82 33 7 42 6 46 65 37 -1
